702 5
10 10 10 10 10 

0 0 0 0 0 0 5 2 54 106 158 170 
0 0 0 0 0 0 4 3 4 5 7 
7 4 6 9 9 2 5 16 13 12 11 8 
5 5 9 6 4 6 2 11 6 
6 9 10 6 7 7 1 6 
10 6 5 10 9 5 3 18 16 9 
3 8 5 7 10 7 2 18 9 
1 7 8 9 10 2 1 9 
1 7 5 9 4 8 1 10 
5 10 10 10 7 6 4 22 21 19 14 
5 9 10 9 7 10 4 21 19 18 14 
8 10 10 8 7 7 3 21 18 17 
8 4 8 7 10 6 2 21 15 
1 8 7 5 10 9 1 15 
1 8 8 6 7 5 1 17 
9 4 9 10 8 6 2 17 125 
1 9 5 9 8 8 4 29 28 24 20 
3 10 5 10 5 8 2 24 20 
2 10 9 9 8 10 3 28 24 23 
7 9 10 10 8 7 2 25 23 
4 2 7 4 7 7 1 24 
2 9 5 8 7 8 1 23 
6 5 9 8 8 5 1 26 
5 10 8 9 10 9 1 26 
9 7 4 9 10 6 1 26 
4 10 5 8 5 6 1 27 
10 9 4 10 10 10 1 30 
6 5 7 7 7 10 1 30 
4 6 10 10 6 8 1 30 
1 8 10 7 5 7 3 35 33 31 
9 10 9 3 8 10 1 32 
3 10 10 7 6 8 3 39 37 34 
6 6 5 9 10 5 2 37 34 
8 9 10 7 4 7 2 41 36 
6 9 7 5 6 10 2 41 37 
8 5 5 5 7 9 2 43 38 
8 5 9 10 7 7 1 38 
8 7 10 4 10 10 1 40 
10 6 4 4 7 9 1 41 
3 8 9 5 10 8 1 42 
3 8 8 6 6 6 1 42 
2 10 10 9 7 7 1 44 
10 6 5 9 6 8 1 44 
2 9 6 3 10 10 1 45 
2 9 5 5 5 10 2 48 46 
5 8 8 9 9 6 2 49 47 
9 7 4 9 8 6 2 52 50 
7 6 10 9 8 8 2 52 50 
2 8 10 5 10 10 2 52 51 
10 4 8 10 3 10 1 51 
4 10 6 7 6 7 1 53 
5 7 9 6 9 9 1 53 
0 0 0 0 0 0 1 702 
0 0 0 0 0 0 4 55 56 57 58 
10 6 1 3 1 5 5 66 62 61 60 59 
2 10 8 5 9 6 4 66 61 60 59 
9 5 7 7 7 10 2 62 59 
1 5 4 9 10 8 3 65 63 62 
3 9 10 10 3 8 3 68 65 63 
6 10 7 10 4 7 2 68 64 
9 8 7 9 7 9 1 63 
7 6 8 9 8 4 3 72 68 67 
9 7 7 6 4 9 1 64 
9 9 5 8 10 10 3 74 72 67 
2 10 3 7 7 10 4 74 72 71 69 
1 8 7 6 6 7 3 71 69 68 
9 6 8 7 7 5 2 71 69 
4 10 9 8 8 4 2 74 70 
6 6 6 10 10 10 1 70 
3 7 10 5 9 7 3 81 79 73 
3 6 6 8 7 10 3 81 79 73 
5 7 6 10 9 10 3 81 79 73 
7 10 7 8 10 5 3 77 76 75 
2 8 9 10 8 5 2 76 75 
2 5 9 4 6 7 1 78 
10 10 10 10 5 8 1 78 
5 9 4 10 9 7 1 78 
10 8 10 5 7 8 1 80 
5 7 4 7 6 8 1 80 
7 9 5 8 9 8 1 82 
9 7 9 7 5 6 1 82 
4 7 10 9 8 8 3 87 85 83 
3 8 10 6 8 10 1 84 
3 8 9 6 8 6 2 90 86 
9 6 5 7 6 7 1 86 
9 10 7 10 9 8 2 89 88 
8 8 9 9 10 6 1 88 
7 8 10 8 10 5 4 95 92 91 625 
9 6 10 7 10 9 3 95 92 91 
8 5 4 10 8 7 2 92 91 
10 6 10 5 9 10 1 93 
5 7 10 6 9 10 1 93 
1 9 10 7 6 10 1 94 
10 4 7 7 10 9 1 96 
8 8 9 7 6 6 1 96 
5 8 7 5 5 4 1 97 
5 6 9 5 8 10 2 100 98 
7 8 10 10 8 10 2 101 99 
2 8 6 3 8 8 2 104 102 
7 10 9 3 7 8 2 104 102 
3 5 8 10 10 5 2 104 103 
4 7 7 9 4 5 1 103 
4 5 6 10 8 5 1 105 
5 10 7 10 9 8 1 105 
0 0 0 0 0 0 1 702 
0 0 0 0 0 0 4 107 108 109 110 
2 2 2 6 3 2 5 118 114 113 112 111 
4 8 4 8 10 6 5 118 114 113 112 111 
6 6 7 4 5 9 3 114 113 111 
3 10 7 6 9 7 2 114 111 
6 9 10 7 8 9 3 120 117 115 
3 7 9 3 5 7 3 120 117 115 
6 9 9 7 9 7 2 120 115 
4 10 10 10 6 6 3 121 120 119 
1 6 10 7 8 10 1 116 
2 9 6 6 8 7 3 126 121 119 
2 10 8 10 10 10 4 126 121 119 351 
4 8 10 7 6 4 3 123 122 120 
1 2 10 7 9 4 2 123 122 
10 4 7 6 4 6 2 126 124 
3 9 6 3 7 5 1 122 
7 10 4 9 4 10 1 124 
10 9 10 9 9 10 1 124 
4 5 10 6 8 8 3 133 131 125 
6 6 5 9 8 10 3 129 128 127 
8 8 8 4 10 8 3 133 128 127 
6 10 6 10 9 9 1 130 
6 8 10 9 10 10 1 130 
4 9 7 8 10 5 1 130 
5 9 9 9 10 8 1 132 
2 10 10 10 4 10 1 132 
5 10 10 10 8 5 1 134 
4 8 6 4 4 7 1 134 
2 6 4 9 8 8 2 137 135 
1 9 10 6 3 6 2 140 136 
8 7 7 4 10 10 2 139 138 
10 6 5 7 6 7 1 138 
5 10 9 10 10 4 2 142 141 
3 3 4 7 10 7 1 141 
8 10 5 7 10 6 1 141 
7 5 5 6 6 7 3 147 144 143 
7 9 3 10 7 10 3 147 144 143 
3 6 7 7 7 10 1 145 
4 9 8 10 4 9 1 145 
1 8 6 6 6 7 1 146 
3 5 10 8 7 10 1 148 
1 7 10 10 6 8 1 148 
1 6 9 10 7 4 1 149 
10 10 7 10 9 5 2 152 150 
3 10 6 6 6 10 1 151 
7 7 10 8 7 8 2 154 153 
1 6 6 9 8 8 1 153 
3 8 8 6 8 7 2 156 155 
6 6 8 7 9 10 2 156 155 
2 4 10 9 10 10 1 157 
1 7 8 9 10 5 1 157 
0 0 0 0 0 0 1 702 
0 0 0 0 0 0 2 159 160 
4 6 0 0 0 0 3 165 164 161 
4 5 0 0 0 0 3 168 164 162 
9 3 0 0 0 0 3 168 166 162 
9 6 0 0 0 0 1 163 
4 10 0 0 0 0 1 167 
1 9 0 0 0 0 1 166 
5 9 0 0 0 0 2 166 330 
7 7 0 0 0 0 1 169 
5 10 0 0 0 0 1 169 
6 10 0 0 0 0 1 169 
0 0 0 0 0 0 5 222 264 306 348 360 
0 0 0 0 0 0 4 171 172 173 174 
5 5 4 4 3 2 5 182 181 177 176 175 
7 8 10 10 8 7 4 182 177 176 175 
1 10 7 8 5 8 2 181 175 
2 4 6 9 7 8 3 181 180 178 
8 7 8 8 9 8 3 184 180 178 
4 10 4 7 10 8 2 184 179 
8 10 9 10 10 10 1 178 
3 9 10 6 5 9 1 179 
5 7 4 7 4 10 4 190 188 187 183 
2 5 6 4 5 8 4 190 188 187 185 
4 9 6 5 7 9 3 188 185 184 
1 9 9 7 6 5 3 187 185 184 
8 10 5 10 5 10 1 185 
4 8 10 7 10 10 4 197 195 190 189 
3 6 9 10 9 7 1 186 
9 6 6 7 5 7 4 197 195 192 189 
9 8 9 6 10 9 4 197 195 192 189 
10 10 3 9 8 10 3 195 192 189 
9 9 7 7 5 5 2 193 191 
8 8 7 4 7 6 2 192 191 
1 6 5 4 10 10 1 194 
3 8 9 7 10 9 1 194 
4 4 8 10 5 4 1 194 
6 4 4 7 10 9 1 196 
6 10 10 7 5 5 1 196 
3 10 8 8 3 10 1 198 
8 4 9 10 9 7 1 198 
4 8 10 10 9 4 4 203 201 199 557 
1 10 9 7 10 6 1 200 
9 7 8 6 10 10 2 206 202 
10 10 9 8 8 5 1 202 
6 8 10 8 9 10 3 208 205 204 
7 6 8 9 7 10 2 208 204 
3 8 4 7 10 7 2 211 207 
9 6 5 7 7 8 2 211 207 
9 10 7 7 10 7 1 208 
9 8 10 4 7 8 1 209 
3 7 9 8 7 6 1 209 
3 6 2 10 7 3 1 210 
3 4 8 4 8 6 1 212 
3 7 10 10 10 9 1 212 
8 5 10 9 5 7 1 213 
2 4 7 10 7 7 2 216 214 
7 6 8 7 7 6 2 217 215 
10 10 5 6 10 10 2 220 218 
1 9 9 7 8 8 2 220 218 
9 10 10 7 8 7 2 220 219 
6 5 7 10 5 5 1 219 
10 8 8 9 6 10 1 221 
10 9 10 7 10 6 1 221 
0 0 0 0 0 0 1 702 
0 0 0 0 0 0 2 223 231 
7 5 0 3 3 1 2 262 224 
5 3 0 10 10 8 2 228 225 
4 10 0 5 4 10 4 248 235 232 226 
10 9 0 5 6 10 1 227 
5 10 0 9 10 5 2 233 229 
5 8 0 7 7 8 4 252 248 234 233 
2 10 0 7 10 4 2 252 230 
8 5 0 10 6 10 3 251 246 234 
3 8 0 8 10 8 1 232 
7 6 0 4 8 10 1 233 
6 10 0 5 10 4 4 261 246 239 236 
8 9 0 5 8 10 4 261 239 236 679 
5 7 0 8 10 9 3 251 246 237 
7 10 0 8 5 6 2 260 237 
7 4 0 7 5 10 2 259 238 
1 5 0 10 10 6 3 258 250 240 
8 4 0 9 9 9 5 260 257 256 250 242 
8 7 0 7 8 9 2 257 241 
1 8 0 10 4 5 2 256 242 
6 7 0 8 9 9 1 243 
4 10 0 10 8 10 2 255 244 
4 10 0 6 8 10 1 245 
9 8 0 10 6 6 2 254 247 
5 8 0 8 7 3 1 247 
3 6 0 4 6 9 1 249 
5 6 0 9 9 6 1 251 
5 10 0 8 10 8 1 253 
1 6 0 8 5 9 1 253 
3 10 0 10 7 6 1 254 
6 7 0 8 10 7 1 254 
5 4 0 10 10 7 1 263 
8 9 0 9 5 10 1 263 
9 7 0 5 9 6 1 263 
5 5 0 10 6 6 1 263 
4 5 0 5 7 8 1 263 
9 10 0 5 7 8 1 263 
3 8 0 8 6 6 1 263 
6 10 0 7 5 9 1 263 
4 8 0 10 7 5 1 263 
9 8 0 5 10 10 1 263 
0 0 0 0 0 0 1 702 
0 0 0 0 0 0 2 265 268 
2 6 3 0 4 6 1 266 
7 4 8 0 4 5 2 269 267 
6 7 10 0 7 7 4 283 276 274 270 
2 8 7 0 7 7 3 283 274 271 
6 10 4 0 6 10 4 289 283 275 272 
10 8 5 0 10 8 1 271 
8 6 6 0 8 8 2 275 272 
6 10 9 0 10 2 2 287 273 
10 6 8 0 10 8 3 291 286 277 
5 8 8 0 10 5 1 275 
1 8 6 0 6 5 4 291 286 281 278 
8 5 10 0 9 8 5 294 291 286 281 279 
1 7 4 0 5 10 2 281 278 
2 6 8 0 4 8 2 294 279 
10 10 10 0 8 8 1 280 
1 5 7 0 6 8 4 304 303 292 282 
7 6 10 0 6 10 2 292 282 
1 6 8 0 7 10 3 302 284 695 
4 10 7 0 6 6 3 297 291 290 
1 8 6 0 10 6 2 297 285 
2 9 10 0 8 6 1 288 
10 4 5 0 8 10 1 288 
6 8 8 0 4 10 2 297 291 
4 9 7 0 7 9 1 290 
10 8 10 0 8 5 3 301 297 295 
5 5 5 0 9 10 2 300 293 
6 10 10 0 10 10 3 301 298 295 
8 10 7 0 10 9 2 297 295 
7 7 7 0 10 7 2 301 296 
10 6 6 0 7 8 1 296 
5 7 7 0 8 6 2 300 299 
7 7 8 0 5 10 1 298 
4 10 5 0 9 6 1 298 
5 4 10 0 8 7 1 299 
1 9 5 0 5 8 1 305 
2 6 10 0 10 5 1 305 
1 9 10 0 8 8 1 305 
2 10 10 0 6 6 1 305 
2 10 6 0 9 9 1 305 
6 8 10 0 8 6 1 305 
0 0 0 0 0 0 1 702 
0 0 0 0 0 0 2 307 310 
4 3 4 4 0 4 1 308 
2 7 5 4 0 10 2 311 309 
8 3 6 6 0 9 4 322 319 316 312 
10 6 6 5 0 8 3 322 316 313 
7 10 10 8 0 7 4 331 322 318 314 
8 8 6 10 0 8 1 313 
2 6 6 9 0 5 2 318 314 
5 5 8 7 0 9 2 328 315 
1 7 9 10 0 7 1 317 
10 10 10 6 0 5 1 318 
1 4 10 6 0 9 3 332 327 320 
4 9 6 6 0 8 3 332 327 320 
6 4 5 8 0 8 3 332 327 320 
10 10 9 9 0 8 3 337 324 321 
4 9 4 3 0 10 1 323 
8 10 7 7 0 6 6 346 345 341 337 332 326 
1 5 4 10 0 10 4 346 341 334 325 
1 10 6 10 0 8 2 334 325 
2 6 10 4 0 7 2 345 326 
5 10 10 7 0 7 2 339 329 
1 9 9 9 0 7 2 346 330 
1 7 7 10 0 8 2 338 332 
5 6 7 10 0 5 1 330 
7 6 5 10 0 7 1 333 
2 7 5 10 0 7 2 332 660 
6 7 10 7 0 6 3 344 339 336 
10 10 10 7 0 8 2 343 335 
4 7 6 4 0 10 2 339 336 
6 10 8 6 0 8 2 344 338 
7 10 10 8 0 10 2 343 340 
10 9 5 10 0 8 1 338 
9 5 10 8 0 10 1 340 
8 10 8 5 0 6 1 340 
8 7 6 10 0 6 1 342 
3 8 10 7 0 6 1 343 
3 10 7 10 0 3 1 347 
3 10 8 7 0 8 1 347 
6 5 10 8 0 7 1 347 
3 9 9 8 0 10 1 347 
9 6 9 7 0 7 1 347 
0 0 0 0 0 0 1 702 
0 0 0 0 0 0 4 349 352 357 358 
2 1 0 0 0 0 2 354 350 
7 9 0 0 0 0 1 351 
10 8 0 0 0 0 1 353 
1 9 0 0 0 0 2 353 648 
6 9 0 0 0 0 1 355 
5 6 0 0 0 0 1 356 
8 6 0 0 0 0 1 359 
2 8 0 0 0 0 1 359 
3 10 0 0 0 0 1 359 
2 9 0 0 0 0 1 359 
0 0 0 0 0 0 5 402 434 466 478 510 
0 0 0 0 0 0 2 361 362 
4 7 2 0 4 8 1 363 
3 6 6 0 5 5 1 363 
3 7 5 0 10 4 2 365 364 
8 5 10 0 9 5 4 373 369 368 366 
2 10 7 0 8 5 4 373 369 368 367 
10 7 6 0 7 5 1 367 
9 3 10 0 9 9 3 372 371 370 
10 5 8 0 9 6 3 372 371 370 
8 10 6 0 5 4 2 371 370 
10 10 7 0 6 6 2 377 374 
2 6 10 0 2 9 2 377 374 
7 8 8 0 8 10 3 377 374 640 
6 5 10 0 10 5 2 377 376 
4 10 9 0 7 10 1 375 
1 10 8 0 6 8 1 376 
3 7 9 0 9 9 2 379 378 
2 5 9 0 7 10 1 378 
3 7 8 0 10 9 3 382 381 380 
9 10 8 0 9 10 3 383 382 381 
5 5 9 0 9 8 3 388 385 383 
1 10 3 0 8 6 3 388 387 384 
6 7 7 0 8 4 2 385 384 
3 8 5 0 5 4 1 384 
5 10 9 0 9 7 2 390 386 
3 10 10 0 8 9 1 387 
2 5 7 0 7 10 2 391 389 
1 7 10 0 10 10 2 391 389 
8 5 5 0 7 6 2 392 390 
8 5 10 0 5 4 2 394 392 
2 7 10 0 9 8 1 391 
10 9 6 0 9 9 3 395 394 393 
1 9 9 0 6 10 2 395 393 
2 10 10 0 4 6 2 397 396 
6 9 6 0 10 10 2 397 396 
9 8 7 0 8 7 2 398 397 
1 6 7 0 8 9 2 400 398 
6 4 10 0 3 9 2 400 399 
4 10 6 0 7 8 1 399 
9 9 5 0 10 9 1 401 
8 9 3 0 10 10 1 401 
0 0 0 0 0 0 1 702 
0 0 0 0 0 0 7 403 427 428 429 430 431 432 
6 3 3 5 0 0 3 426 425 404 
1 5 5 6 0 0 3 424 423 405 
4 8 10 7 0 0 1 406 
8 10 8 5 0 0 1 407 
4 9 7 7 0 0 1 408 
6 9 3 9 0 0 2 422 409 
1 3 5 7 0 0 3 421 420 410 
8 8 9 7 0 0 1 411 
2 10 10 5 0 0 2 419 412 
9 9 7 10 0 0 2 418 413 
4 10 8 9 0 0 1 414 
3 4 7 8 0 0 1 415 
7 7 8 5 0 0 2 416 687 
4 10 8 10 0 0 1 417 
7 7 10 10 0 0 1 433 
6 8 8 7 0 0 1 433 
7 6 8 9 0 0 1 433 
6 10 9 10 0 0 1 433 
10 4 10 4 0 0 1 433 
7 6 10 4 0 0 1 433 
7 10 6 6 0 0 1 433 
9 8 3 10 0 0 1 433 
9 7 8 5 0 0 1 433 
4 8 3 3 0 0 1 433 
6 2 7 10 0 0 1 433 
10 10 10 10 0 0 1 433 
1 10 9 10 0 0 1 433 
5 8 9 7 0 0 1 433 
2 9 10 10 0 0 1 433 
8 7 7 10 0 0 1 433 
0 0 0 0 0 0 1 702 
0 0 0 0 0 0 3 435 436 464 
1 0 2 5 0 6 2 463 437 
2 0 8 10 0 4 3 463 462 438 
9 0 10 4 0 4 2 451 438 
3 0 10 9 0 5 1 439 
4 0 9 10 0 10 3 461 460 440 
5 0 7 7 0 9 1 441 
10 0 10 9 0 8 3 459 458 442 
7 0 4 8 0 10 2 457 443 
10 0 4 6 0 9 1 444 
2 0 6 10 0 10 1 445 
3 0 8 4 0 7 2 456 446 
9 0 8 9 0 9 1 447 
3 0 7 4 0 7 3 455 450 448 
8 0 8 6 0 4 3 454 452 449 
5 0 6 10 0 10 1 453 
1 0 7 10 0 9 1 452 
2 0 8 9 0 5 1 462 
7 0 10 9 0 10 2 465 583 
2 0 9 7 0 4 1 465 
1 0 5 8 0 10 1 465 
9 0 7 7 0 4 1 465 
1 0 7 5 0 7 1 465 
7 0 7 5 0 6 1 465 
2 0 10 10 0 6 1 465 
10 0 5 7 0 10 1 465 
10 0 10 5 0 10 1 465 
10 0 6 8 0 10 1 465 
7 0 7 8 0 8 1 465 
9 0 10 10 0 10 1 465 
9 0 10 6 0 4 1 465 
0 0 0 0 0 0 1 702 
0 0 0 0 0 0 4 467 471 472 473 
7 5 0 0 0 0 2 470 468 
6 5 0 0 0 0 1 469 
9 10 0 0 0 0 2 476 474 
10 3 0 0 0 0 2 476 474 
3 10 0 0 0 0 2 476 474 
6 9 0 0 0 0 2 476 474 
1 10 0 0 0 0 2 476 475 
1 6 0 0 0 0 1 475 
7 10 0 0 0 0 1 477 
8 7 0 0 0 0 1 477 
0 0 0 0 0 0 5 542 564 586 608 620 
0 0 0 0 0 0 3 479 480 508 
3 5 2 0 7 0 2 507 481 
4 2 10 0 10 0 2 507 481 
3 6 10 0 10 0 2 486 482 
6 4 7 0 10 0 2 491 483 
4 8 6 0 7 0 3 506 500 484 
3 9 7 0 4 0 1 485 
4 9 10 0 10 0 2 494 487 
5 6 6 0 7 0 5 499 496 494 491 489 
9 7 9 0 9 0 2 499 488 
7 6 6 0 6 0 2 496 489 
6 6 10 0 10 0 1 490 
9 7 7 0 5 0 2 505 492 
10 8 8 0 4 0 1 492 
2 10 6 0 4 0 1 493 
5 7 7 0 10 0 3 504 498 495 
5 10 7 0 8 0 4 504 503 502 497 
5 8 9 0 6 0 3 503 502 497 
1 6 4 0 9 0 1 497 
3 10 10 0 7 0 1 501 
9 10 6 0 10 0 1 502 
9 7 9 0 10 0 1 505 
4 8 9 0 7 0 1 501 
2 10 7 0 10 0 1 509 
7 5 6 0 7 0 1 509 
10 9 6 0 6 0 1 509 
5 10 10 0 6 0 1 509 
8 8 7 0 8 0 1 509 
2 7 10 0 7 0 1 509 
8 8 7 0 4 0 1 509 
7 9 7 0 7 0 1 509 
0 0 0 0 0 0 1 702 
0 0 0 0 0 0 3 511 512 517 
4 5 3 0 4 0 2 522 513 
3 6 10 0 4 0 2 522 513 
4 8 6 0 10 0 2 518 514 
3 5 8 0 9 0 2 519 515 
1 5 8 0 7 0 1 516 
6 10 10 0 8 0 3 526 523 520 
8 7 5 0 3 0 2 522 521 
5 8 6 0 7 0 1 519 
2 6 5 0 7 0 2 526 521 
6 8 3 0 8 0 1 521 
3 9 10 0 10 0 3 531 529 524 
4 4 9 0 10 0 3 531 526 524 
5 6 10 0 8 0 2 531 525 
9 10 9 0 6 0 1 525 
6 1 6 0 6 0 2 533 527 
3 10 8 0 10 0 1 527 
2 8 8 0 6 0 1 528 
10 10 9 0 8 0 1 530 
1 8 10 0 8 0 1 530 
6 4 5 0 10 0 3 540 535 532 
5 10 6 0 9 0 2 540 532 
2 6 6 0 8 0 4 539 538 536 534 
10 10 7 0 10 0 2 536 534 
3 4 10 0 7 0 1 537 
1 10 10 0 6 0 1 536 
3 10 6 0 10 0 1 541 
5 8 10 0 8 0 1 541 
4 10 9 0 10 0 1 541 
10 10 8 0 4 0 1 541 
6 9 5 0 4 0 1 541 
0 0 0 0 0 0 1 702 
0 0 0 0 0 0 5 543 550 560 561 562 
10 3 0 2 0 0 1 544 
4 5 0 3 0 0 3 559 558 545 
8 7 0 10 0 0 3 557 556 546 
1 10 0 10 0 0 2 554 547 
7 6 0 9 0 0 2 555 548 
7 7 0 9 0 0 1 549 
7 8 0 9 0 0 1 551 
10 9 0 6 0 0 2 554 553 
2 6 0 6 0 0 1 552 
10 6 0 8 0 0 1 553 
10 7 0 10 0 0 1 563 
2 10 0 10 0 0 1 563 
2 7 0 9 0 0 1 563 
5 10 0 7 0 0 1 563 
4 10 0 8 0 0 1 563 
7 8 0 5 0 0 1 563 
9 5 0 9 0 0 1 563 
1 10 0 8 0 0 1 563 
6 10 0 9 0 0 1 563 
1 6 0 3 0 0 1 563 
0 0 0 0 0 0 1 702 
0 0 0 0 0 0 2 565 584 
2 0 0 3 3 0 2 583 566 
6 0 0 7 10 0 3 582 581 567 
1 0 0 4 9 0 2 580 568 
6 0 0 6 6 0 3 579 578 569 
8 0 0 10 9 0 1 570 
7 0 0 10 8 0 1 571 
10 0 0 8 7 0 4 577 576 575 572 
6 0 0 8 8 0 1 573 
5 0 0 7 4 0 1 574 
2 0 0 10 10 0 1 585 
9 0 0 5 7 0 1 585 
4 0 0 8 10 0 1 585 
5 0 0 5 6 0 1 585 
10 0 0 10 9 0 1 585 
6 0 0 7 9 0 1 585 
10 0 0 10 10 0 1 585 
2 0 0 3 4 0 1 585 
10 0 0 9 8 0 1 585 
5 0 0 10 6 0 1 585 
3 0 0 10 7 0 1 585 
0 0 0 0 0 0 1 702 
0 0 0 0 0 0 5 587 603 604 605 606 
2 3 0 0 4 0 4 602 601 600 588 
1 8 0 0 8 0 2 599 589 
9 8 0 0 6 0 2 598 590 
9 6 0 0 8 0 1 591 
6 3 0 0 7 0 2 597 592 
8 8 0 0 6 0 1 593 
4 8 0 0 6 0 1 594 
10 10 0 0 9 0 1 595 
10 10 0 0 6 0 1 596 
8 10 0 0 8 0 1 607 
7 10 0 0 8 0 1 607 
6 6 0 0 10 0 1 607 
5 10 0 0 8 0 1 607 
3 6 0 0 9 0 1 607 
4 8 0 0 7 0 1 607 
9 6 0 0 5 0 1 607 
8 4 0 0 7 0 1 607 
2 6 0 0 9 0 1 607 
9 10 0 0 10 0 1 607 
6 10 0 0 9 0 1 607 
0 0 0 0 0 0 1 702 
0 0 0 0 0 0 3 609 611 618 
10 0 0 0 4 0 1 610 
8 0 0 0 8 0 2 613 612 
8 0 0 0 6 0 2 613 612 
8 0 0 0 7 0 2 617 614 
8 0 0 0 10 0 2 616 615 
1 0 0 0 6 0 1 615 
5 0 0 0 8 0 1 619 
8 0 0 0 8 0 1 619 
5 0 0 0 9 0 1 619 
6 0 0 0 9 0 1 619 
0 0 0 0 0 0 5 642 654 666 678 690 
0 0 0 0 0 0 2 621 622 
1 0 0 0 4 7 2 629 623 
4 0 0 0 7 5 3 635 626 624 
5 0 0 0 9 10 2 635 625 
9 0 0 0 10 10 3 630 629 627 
7 0 0 0 7 10 2 630 626 
9 0 0 0 7 6 1 627 
6 0 0 0 9 7 1 628 
3 0 0 0 4 7 4 638 637 633 631 
2 0 0 0 7 7 4 638 634 633 632 
5 0 0 0 5 9 3 638 633 631 
9 0 0 0 10 10 1 632 
1 0 0 0 7 3 1 636 
5 0 0 0 7 7 1 636 
5 0 0 0 10 7 1 637 
1 0 0 0 8 7 1 637 
10 0 0 0 7 4 1 639 
3 0 0 0 9 5 1 639 
1 0 0 0 10 10 1 640 
6 0 0 0 8 9 1 641 
1 0 0 0 5 10 1 641 
0 0 0 0 0 0 1 702 
0 0 0 0 0 0 4 643 647 650 652 
8 0 0 0 4 0 3 649 645 644 
9 0 0 0 8 0 1 646 
7 0 0 0 5 0 1 646 
2 0 0 0 5 0 1 648 
7 0 0 0 9 0 1 648 
8 0 0 0 7 0 1 651 
8 0 0 0 10 0 1 651 
8 0 0 0 10 0 1 651 
5 0 0 0 10 0 1 653 
2 0 0 0 7 0 1 653 
0 0 0 0 0 0 1 702 
0 0 0 0 0 0 2 655 656 
3 7 0 0 0 0 2 659 658 
2 4 0 0 0 0 1 657 
5 7 0 0 0 0 1 658 
9 9 0 0 0 0 2 661 660 
1 7 0 0 0 0 3 664 663 661 
5 10 0 0 0 0 3 664 663 662 
5 9 0 0 0 0 1 662 
1 10 0 0 0 0 1 665 
10 4 0 0 0 0 1 665 
6 8 0 0 0 0 1 665 
0 0 0 0 0 0 1 702 
0 0 0 0 0 0 3 667 671 672 
1 0 6 0 0 0 2 670 668 
5 0 8 0 0 0 2 675 669 
7 0 6 0 0 0 2 676 673 
4 0 9 0 0 0 2 675 674 
9 0 10 0 0 0 1 673 
9 0 7 0 0 0 1 673 
9 0 6 0 0 0 1 674 
5 0 7 0 0 0 1 677 
6 0 6 0 0 0 1 677 
3 0 10 0 0 0 1 677 
0 0 0 0 0 0 1 702 
0 0 0 0 0 0 2 679 683 
7 0 0 0 1 0 3 684 681 680 
9 0 0 0 7 0 1 682 
7 0 0 0 7 0 1 682 
10 0 0 0 10 0 3 688 686 685 
3 0 0 0 8 0 3 688 686 685 
1 0 0 0 10 0 2 686 685 
3 0 0 0 6 0 1 687 
7 0 0 0 8 0 1 687 
9 0 0 0 10 0 1 689 
8 0 0 0 8 0 1 689 
0 0 0 0 0 0 1 702 
0 0 0 0 0 0 4 691 695 696 700 
5 0 0 0 0 4 2 699 692 
9 0 0 0 0 6 2 698 693 
7 0 0 0 0 10 1 694 
4 0 0 0 0 7 1 697 
9 0 0 0 0 9 1 698 
7 0 0 0 0 9 1 697 
6 0 0 0 0 9 1 701 
9 0 0 0 0 10 1 701 
4 0 0 0 0 6 1 701 
9 0 0 0 0 5 1 701 
0 0 0 0 0 0 1 702 
0 0 0 0 0 0 0 
